robust/generate/spp_dkp_Lefebvre_et_al_2026/src/shortest_path_5_2.kp
44
89

[4.64 0.58 4.14 2.01 2.0 3.39 2.19 2.28 2.84 3.95 5.34 2.54 2.38 0.63 1.21 5.33]

[77 11 77 60 43 49 76 61 89 51 39 58 30 7 29 17]
