robust/generate/spp_dkp_Lefebvre_et_al_2026/src/shortest_path_5_2.lp
\ Model sp_5_2
\ LP format - for model browsing. Use MPS format to capture full model detail.
\ Signature: 0x6daf66c4acd85796
Minimize
  28.6 y[0,1] + 58.14 y[0,2] + 38.21 y[0,3] + 64.76 y[0,4] + 28.6 y[1,0]
   + 64.51 y[1,3] + 58.14 y[2,0] + 34.53 y[2,3] + 29.83 y[2,4]
   + 38.21 y[3,0] + 64.51 y[3,1] + 34.53 y[3,2] + 27.31 y[3,4]
   + 64.76 y[4,0] + 29.83 y[4,2] + 27.31 y[4,3] + 2.86 r[0,1]
   + 5.814 r[0,2] + 3.821 r[0,3] + 6.476 r[0,4] + 2.86 r[1,0]
   + 6.451 r[1,3] + 5.814 r[2,0] + 3.453 r[2,3] + 2.983 r[2,4]
   + 3.821 r[3,0] + 6.451 r[3,1] + 3.453 r[3,2] + 2.731 r[3,4]
   + 6.476 r[4,0] + 2.983 r[4,2] + 2.731 r[4,3]
Subject To
 flow_cons_inner_nodes[0]: - y[0,1] - y[0,2] - y[0,3] - y[0,4] + y[1,0]
   + y[2,0] + y[3,0] + y[4,0] = 0
 flow_cons_inner_nodes[2]: y[0,2] - y[2,0] - y[2,3] - y[2,4] + y[3,2]
   + y[4,2] = 0
 flow_cons_inner_nodes[3]: y[0,3] + y[1,3] + y[2,3] - y[3,0] - y[3,1]
   - y[3,2] - y[3,4] + y[4,3] = 0
 flow_cons_source: - y[0,1] + y[1,0] + y[1,3] - y[3,1] = 1
 flow_cons_target: y[0,4] + y[2,4] + y[3,4] - y[4,0] - y[4,2] - y[4,3] = 1
 primal_lower: - 4.64 y[0,1] - 0.58 y[0,2] - 4.14 y[0,3] - 2.01 y[0,4]
   - 2 y[1,0] - 3.39 y[1,3] - 2.19 y[2,0] - 2.28 y[2,3] - 2.84 y[2,4]
   - 3.95 y[3,0] - 5.34 y[3,1] - 2.54 y[3,2] - 2.38 y[3,4] - 0.63 y[4,0]
   - 1.21 y[4,2] - 5.33 y[4,3] + 77 u[0,1] + 11 u[0,2] + 77 u[0,3]
   + 60 u[0,4] + 43 u[1,0] + 49 u[1,3] + 76 u[2,0] + 61 u[2,3] + 89 u[2,4]
   + 51 u[3,0] + 39 u[3,1] + 58 u[3,2] + 30 u[3,4] + 7 u[4,0] + 29 u[4,2]
   + 17 u[4,3] <= 89
 mccormick1[0,1]: - u[0,1] + r[0,1] <= 0
 mccormick1[0,2]: - u[0,2] + r[0,2] <= 0
 mccormick1[0,3]: - u[0,3] + r[0,3] <= 0
 mccormick1[0,4]: - u[0,4] + r[0,4] <= 0
 mccormick1[1,0]: - u[1,0] + r[1,0] <= 0
 mccormick1[1,3]: - u[1,3] + r[1,3] <= 0
 mccormick1[2,0]: - u[2,0] + r[2,0] <= 0
 mccormick1[2,3]: - u[2,3] + r[2,3] <= 0
 mccormick1[2,4]: - u[2,4] + r[2,4] <= 0
 mccormick1[3,0]: - u[3,0] + r[3,0] <= 0
 mccormick1[3,1]: - u[3,1] + r[3,1] <= 0
 mccormick1[3,2]: - u[3,2] + r[3,2] <= 0
 mccormick1[3,4]: - u[3,4] + r[3,4] <= 0
 mccormick1[4,0]: - u[4,0] + r[4,0] <= 0
 mccormick1[4,2]: - u[4,2] + r[4,2] <= 0
 mccormick1[4,3]: - u[4,3] + r[4,3] <= 0
 mccormick2[0,1]: - y[0,1] + r[0,1] <= 0
 mccormick2[0,2]: - y[0,2] + r[0,2] <= 0
 mccormick2[0,3]: - y[0,3] + r[0,3] <= 0
 mccormick2[0,4]: - y[0,4] + r[0,4] <= 0
 mccormick2[1,0]: - y[1,0] + r[1,0] <= 0
 mccormick2[1,3]: - y[1,3] + r[1,3] <= 0
 mccormick2[2,0]: - y[2,0] + r[2,0] <= 0
 mccormick2[2,3]: - y[2,3] + r[2,3] <= 0
 mccormick2[2,4]: - y[2,4] + r[2,4] <= 0
 mccormick2[3,0]: - y[3,0] + r[3,0] <= 0
 mccormick2[3,1]: - y[3,1] + r[3,1] <= 0
 mccormick2[3,2]: - y[3,2] + r[3,2] <= 0
 mccormick2[3,4]: - y[3,4] + r[3,4] <= 0
 mccormick2[4,0]: - y[4,0] + r[4,0] <= 0
 mccormick2[4,2]: - y[4,2] + r[4,2] <= 0
 mccormick2[4,3]: - y[4,3] + r[4,3] <= 0
 mccormick3[0,1]: - y[0,1] - u[0,1] + r[0,1] >= -1
 mccormick3[0,2]: - y[0,2] - u[0,2] + r[0,2] >= -1
 mccormick3[0,3]: - y[0,3] - u[0,3] + r[0,3] >= -1
 mccormick3[0,4]: - y[0,4] - u[0,4] + r[0,4] >= -1
 mccormick3[1,0]: - y[1,0] - u[1,0] + r[1,0] >= -1
 mccormick3[1,3]: - y[1,3] - u[1,3] + r[1,3] >= -1
 mccormick3[2,0]: - y[2,0] - u[2,0] + r[2,0] >= -1
 mccormick3[2,3]: - y[2,3] - u[2,3] + r[2,3] >= -1
 mccormick3[2,4]: - y[2,4] - u[2,4] + r[2,4] >= -1
 mccormick3[3,0]: - y[3,0] - u[3,0] + r[3,0] >= -1
 mccormick3[3,1]: - y[3,1] - u[3,1] + r[3,1] >= -1
 mccormick3[3,2]: - y[3,2] - u[3,2] + r[3,2] >= -1
 mccormick3[3,4]: - y[3,4] - u[3,4] + r[3,4] >= -1
 mccormick3[4,0]: - y[4,0] - u[4,0] + r[4,0] >= -1
 mccormick3[4,2]: - y[4,2] - u[4,2] + r[4,2] >= -1
 mccormick3[4,3]: - y[4,3] - u[4,3] + r[4,3] >= -1
Bounds
Binaries
 y[0,1] y[0,2] y[0,3] y[0,4] y[1,0] y[1,3] y[2,0] y[2,3] y[2,4] y[3,0]
 y[3,1] y[3,2] y[3,4] y[4,0] y[4,2] y[4,3] u[0,1] u[0,2] u[0,3] u[0,4]
 u[1,0] u[1,3] u[2,0] u[2,3] u[2,4] u[3,0] u[3,1] u[3,2] u[3,4] u[4,0]
 u[4,2] u[4,3] r[0,1] r[0,2] r[0,3] r[0,4] r[1,0] r[1,3] r[2,0] r[2,3]
 r[2,4] r[3,0] r[3,1] r[3,2] r[3,4] r[4,0] r[4,2] r[4,3]
End
